data;

set A := 616 103 737 317 277 442 65 639 148 460 689 923 15 268 339 112 501 234 776 615 298 782 363 723 219 309 628 455 447 636 634 203 943 954 592 919 213 682 168 14 512 158 130 671 732 534 352 553 13 725 459 376 763 301 193 891 63 958 74 41 810 992 621 331 491 893 118 9 540 696 96 744 709 97 633 230 504 576 303 295 986 335 172 846 625 113 40 470 924 5 450 740 856 236 116 182 962 695 698 474;
param T := 25000;

end;
